Route #1: 89 98 99 62 71
Route #2: 5 12 58
Route #3: 8 17
Route #4: 7 2 45 43 29 36 72 57
Route #5: 38 47 26 48 96 64 34
Route #6: 82 60 59
Route #7: 25 65 78 42 28
Route #8: 83 51 81
Route #9: 18 10 39
Route #10: 32 33 53 73 95 24
Route #11: 52 91 50
Route #12: 75 93
Route #13: 100 61 23
Route #14: 30 85 11 79
Route #15: 66 84 90 68
Route #16: 80 94 56 21
Route #17: 87 37 6 49 14
Route #18: 92 9 86
Route #19: 69 16 55 76
Route #20: 20 41 22 15
Route #21: 74 13 4
Route #22: 35 46 31
Route #23: 3 77 63
Route #24: 1 70 54
Route #25: 40 67 88 44
Route #26: 19 97 27
Cost 27591.0000
Time 16.0002